
Gurobi 8.1.1 (win64) logging started 11/23/19 16:04:29

Changed value of parameter LogFile to logs/full/feas/full-06-15-1.log
   Prev: gurobi.log  Default: 
Changed value of parameter LogToConsole to 0
   Prev: 1  Min: 0  Max: 1  Default: 1
Changed value of parameter TimeLimit to 3600.0
   Prev: 1e+100  Min: 0.0  Max: 1e+100  Default: 1e+100
Optimize a model with 1861 rows, 870 columns and 6996 nonzeros
Variable types: 0 continuous, 870 integer (858 binary)
Coefficient statistics:
  Matrix range     [1e+00, 3e+02]
  Objective range  [1e+00, 1e+00]
  Bounds range     [1e+00, 1e+00]
  RHS range        [1e+00, 3e+02]
Presolve time: 0.02s
Presolved: 1861 rows, 870 columns, 6996 nonzeros
Variable types: 0 continuous, 870 integer (858 binary)

Root relaxation: objective 6.600000e+01, 127 iterations, 0.00 seconds

    Nodes    |    Current Node    |     Objective Bounds      |     Work
 Expl Unexpl |  Obj  Depth IntInf | Incumbent    BestBd   Gap | It/Node Time

     0     0   66.00000    0   64          -   66.00000      -     -    0s
     0     0   66.00000    0   94          -   66.00000      -     -    0s
     0     0   66.00000    0   53          -   66.00000      -     -    0s
     0     0   66.00000    0   69          -   66.00000      -     -    0s
     0     0   66.00000    0   61          -   66.00000      -     -    0s
     0     2   66.00000    0   58          -   66.00000      -     -    0s
H  923   812                     222.0000000   72.25984  67.5%   3.5    4s
H  923   770                     220.0000000   72.25984  67.2%   3.5    4s
   926   772   72.28587  144  118  220.00000   72.28587  67.1%   3.5    5s
H  976   766                     216.0000000   72.57386  66.4%  58.8    8s
H  989   735                     215.0000000   72.65961  66.2%  58.0    9s
  1000   744   87.00000   41   60  215.00000   73.54299  65.8%  63.8   10s
H 1110   767                     211.0000000  101.00000  52.1%  79.5   13s
H 1143   731                     205.0000000  101.00000  50.7%  78.5   13s
H 1182   712                     202.0000000  101.00000  50.0%  77.0   13s
H 1183   672                     187.0000000  101.00000  46.0%  77.0   13s
* 1327   684             104     182.0000000  102.00000  44.0%  72.3   13s
* 1328   652             103     181.0000000  102.00000  43.6%  72.2   13s
* 1329   621             104     180.0000000  102.00000  43.3%  72.2   13s
* 2381   768             182     167.0000000  106.51429  36.2%  46.0   14s
  3108   986  135.40359   62   35  167.00000  109.37143  34.5%  37.3   15s
* 3587  1156              75     166.0000000  111.00000  33.1%  33.6   15s
* 3592  1132              77     165.0000000  111.00000  32.7%  33.5   15s
* 7012  2824             182     155.0000000  115.00000  25.8%  20.0   16s
* 8091  2354             264     141.0000000  115.00000  18.4%  18.1   16s
* 8609  2038              78     137.0000000  117.00000  14.6%  17.5   16s
* 9392  1504              84     134.0000000  120.83229  9.83%  17.2   17s
*10227   284             127     130.0000000  127.00000  2.31%  16.8   17s

Cutting planes:
  Gomory: 18
  Implied bound: 111
  MIR: 6
  Flow cover: 164
  Inf proof: 1
  Zero half: 4

Explored 10566 nodes (177959 simplex iterations) in 17.46 seconds
Thread count was 4 (of 4 available processors)

Solution count 10: 130 134 137 ... 181

Optimal solution found (tolerance 1.00e-04)
Best objective 1.300000000000e+02, best bound 1.300000000000e+02, gap 0.0000%

Gurobi 8.1.1 (win64) logging started 11/23/19 16:04:46

Changed value of parameter LogFile to logs/full/feas/full-06-15-1.log
   Prev: gurobi.log  Default: 
Changed value of parameter LogToConsole to 0
   Prev: 1  Min: 0  Max: 1  Default: 1
Changed value of parameter TimeLimit to 3600.0
   Prev: 1e+100  Min: 0.0  Max: 1e+100  Default: 1e+100
Optimize a model with 1021 rows, 477 columns and 3816 nonzeros
Variable types: 0 continuous, 477 integer (468 binary)
Coefficient statistics:
  Matrix range     [1e+00, 3e+02]
  Objective range  [1e+00, 1e+00]
  Bounds range     [1e+00, 1e+00]
  RHS range        [1e+00, 3e+02]
Presolve time: 0.01s
Presolved: 1021 rows, 477 columns, 3816 nonzeros
Variable types: 0 continuous, 477 integer (468 binary)

Root relaxation: objective 3.600000e+01, 138 iterations, 0.00 seconds

    Nodes    |    Current Node    |     Objective Bounds      |     Work
 Expl Unexpl |  Obj  Depth IntInf | Incumbent    BestBd   Gap | It/Node Time

     0     0   36.00000    0   92          -   36.00000      -     -    0s
     0     0   36.00000    0  113          -   36.00000      -     -    0s
     0     0   38.16805    0   89          -   38.16805      -     -    0s
     0     0   40.26661    0  105          -   40.26661      -     -    0s
     0     0   40.26661    0  104          -   40.26661      -     -    0s
     0     0   41.25759    0   64          -   41.25759      -     -    0s
     0     0   41.25759    0   69          -   41.25759      -     -    0s
     0     0   41.70377    0  119          -   41.70377      -     -    0s
     0     0   41.70377    0  122          -   41.70377      -     -    0s
     0     0   42.47063    0   88          -   42.47063      -     -    0s
     0     0   42.47063    0   86          -   42.47063      -     -    0s
     0     0   42.52861    0   82          -   42.52861      -     -    0s
     0     0   42.87159    0   85          -   42.87159      -     -    0s
     0     0   42.87159    0   85          -   42.87159      -     -    0s
     0     0   43.26080    0  103          -   43.26080      -     -    0s
     0     0   43.27010    0  105          -   43.27010      -     -    0s
     0     0   43.27010    0  107          -   43.27010      -     -    0s
     0     0   43.88418    0  106          -   43.88418      -     -    0s
     0     0   43.88418    0  110          -   43.88418      -     -    0s
     0     0   43.88418    0  108          -   43.88418      -     -    0s
     0     0   43.88418    0   79          -   43.88418      -     -    0s
H    0     0                     147.0000000   43.88418  70.1%     -    0s
     0     2   43.88418    0   69  147.00000   43.88418  70.1%     -    0s
H  820   643                     145.0000000   73.00000  49.7%  11.7    1s
H 2813  1075                     141.0000000   77.73235  44.9%  17.5    2s
H 2958  1022                     134.0000000   79.00000  41.0%  17.4    2s
* 5213  1940              80     131.0000000   88.00000  32.8%  13.9    3s
* 5697  2028             126     129.0000000   88.00000  31.8%  13.3    3s
 10244  3525  102.00000   71   23  129.00000   93.00000  27.9%  11.0    5s
*13753  4134              74     128.0000000   96.00000  25.0%  10.3    5s
*17482  4457              46     127.0000000  100.00000  21.3%  10.1    6s
*17487  4266              49     125.0000000  100.00000  20.0%  10.1    6s
*17490  4099              50     123.0000000  100.00000  18.7%  10.1    6s
*21477  2783              45     121.0000000  107.00000  11.6%  10.5    8s

Cutting planes:
  Gomory: 20
  MIR: 34
  StrongCG: 9

Explored 24495 nodes (253979 simplex iterations) in 9.14 seconds
Thread count was 4 (of 4 available processors)

Solution count 10: 121 123 125 ... 145

Optimal solution found (tolerance 1.00e-04)
Best objective 1.210000000000e+02, best bound 1.210000000000e+02, gap 0.0000%

Gurobi 8.1.1 (win64) logging started 11/23/19 16:04:56

Changed value of parameter LogFile to logs/full/feas/full-06-15-1.log
   Prev: gurobi.log  Default: 
Changed value of parameter LogToConsole to 0
   Prev: 1  Min: 0  Max: 1  Default: 1
Changed value of parameter TimeLimit to 3600.0
   Prev: 1e+100  Min: 0.0  Max: 1e+100  Default: 1e+100
Optimize a model with 797 rows, 372 columns and 2968 nonzeros
Variable types: 0 continuous, 372 integer (364 binary)
Coefficient statistics:
  Matrix range     [1e+00, 3e+02]
  Objective range  [1e+00, 1e+00]
  Bounds range     [1e+00, 1e+00]
  RHS range        [1e+00, 3e+02]
Presolve time: 0.01s
Presolved: 797 rows, 372 columns, 2968 nonzeros
Variable types: 0 continuous, 372 integer (364 binary)

Root relaxation: objective 2.800000e+01, 151 iterations, 0.00 seconds

    Nodes    |    Current Node    |     Objective Bounds      |     Work
 Expl Unexpl |  Obj  Depth IntInf | Incumbent    BestBd   Gap | It/Node Time

     0     0   28.00000    0   99          -   28.00000      -     -    0s
     0     0   28.80836    0  130          -   28.80836      -     -    0s
     0     0   28.86817    0  141          -   28.86817      -     -    0s
     0     0   33.94956    0   80          -   33.94956      -     -    0s
     0     0   33.96922    0   79          -   33.96922      -     -    0s
     0     0   33.96922    0   80          -   33.96922      -     -    0s
     0     0   34.90554    0   80          -   34.90554      -     -    0s
     0     0   35.40794    0   76          -   35.40794      -     -    0s
     0     0   35.40794    0   78          -   35.40794      -     -    0s
     0     0   36.24093    0   79          -   36.24093      -     -    0s
     0     0   36.80257    0   88          -   36.80257      -     -    0s
     0     0   36.80257    0   84          -   36.80257      -     -    0s
     0     0   37.72274    0   84          -   37.72274      -     -    0s
     0     0   38.54578    0   87          -   38.54578      -     -    0s
     0     0   38.54578    0   87          -   38.54578      -     -    0s
     0     0   38.58605    0   80          -   38.58605      -     -    0s
     0     0   38.58605    0   78          -   38.58605      -     -    0s
     0     0   38.60583    0   79          -   38.60583      -     -    0s
     0     0   38.60583    0   66          -   38.60583      -     -    0s
     0     2   38.60583    0   64          -   38.60583      -     -    0s
H  771   607                     167.0000000   56.02115  66.5%   7.5    1s
H  771   576                     159.0000000   56.02115  64.8%   7.5    1s
H  838   561                     150.0000000   68.00000  54.7%  19.9    1s
H 1019   584                     148.0000000   68.00000  54.1%  18.6    1s
  9583  4108 infeasible   68       148.00000   86.00000  41.9%   9.0    5s
*11115  4529             105     145.0000000   89.00000  38.6%   9.0    5s
H11788  3941                     129.0000000   90.00000  30.2%   9.0    5s
H13095  3525                     122.0000000   91.00000  25.4%   9.4    6s
*14004  3165             104     119.0000000   93.00000  21.8%  10.0    6s

Cutting planes:
  Gomory: 34
  Implied bound: 3
  MIR: 27
  StrongCG: 7
  Flow cover: 156
  Inf proof: 4
  Zero half: 6

Explored 19063 nodes (231662 simplex iterations) in 9.44 seconds
Thread count was 4 (of 4 available processors)

Solution count 8: 119 122 129 ... 167

Optimal solution found (tolerance 1.00e-04)
Best objective 1.190000000000e+02, best bound 1.190000000000e+02, gap 0.0000%

Gurobi 8.1.1 (win64) logging started 11/23/19 16:05:05

Changed value of parameter LogFile to logs/full/feas/full-06-15-1.log
   Prev: gurobi.log  Default: 
Changed value of parameter LogToConsole to 0
   Prev: 1  Min: 0  Max: 1  Default: 1
Changed value of parameter TimeLimit to 3600.0
   Prev: 1e+100  Min: 0.0  Max: 1e+100  Default: 1e+100
Optimize a model with 601 rows, 280 columns and 2226 nonzeros
Variable types: 0 continuous, 280 integer (273 binary)
Coefficient statistics:
  Matrix range     [1e+00, 3e+02]
  Objective range  [1e+00, 1e+00]
  Bounds range     [1e+00, 1e+00]
  RHS range        [1e+00, 3e+02]
Presolve time: 0.01s
Presolved: 601 rows, 280 columns, 2226 nonzeros
Variable types: 0 continuous, 280 integer (273 binary)

Root relaxation: objective 2.100000e+01, 172 iterations, 0.00 seconds

    Nodes    |    Current Node    |     Objective Bounds      |     Work
 Expl Unexpl |  Obj  Depth IntInf | Incumbent    BestBd   Gap | It/Node Time

     0     0   21.00000    0  126          -   21.00000      -     -    0s
     0     0   26.27919    0  152          -   26.27919      -     -    0s
     0     0   26.27919    0  151          -   26.27919      -     -    0s
     0     0   28.62612    0  138          -   28.62612      -     -    0s
     0     0   30.35465    0  118          -   30.35465      -     -    0s
     0     0   30.35465    0  118          -   30.35465      -     -    0s
     0     0   31.13026    0  108          -   31.13026      -     -    0s
     0     0   31.15637    0  119          -   31.15637      -     -    0s
     0     0   31.28211    0  116          -   31.28211      -     -    0s
     0     0   31.34984    0  116          -   31.34984      -     -    0s
     0     0   31.36722    0  113          -   31.36722      -     -    0s
     0     0   31.37506    0  121          -   31.37506      -     -    0s
     0     0   31.75238    0  114          -   31.75238      -     -    0s
     0     0   31.84125    0  111          -   31.84125      -     -    0s
     0     0   32.35143    0  113          -   32.35143      -     -    0s
     0     0   32.38266    0  113          -   32.38266      -     -    0s
     0     0   32.38679    0  116          -   32.38679      -     -    0s
     0     0   32.59751    0   98          -   32.59751      -     -    0s
     0     0   33.43898    0  138          -   33.43898      -     -    0s
     0     0   33.53062    0  137          -   33.53062      -     -    0s
     0     0   33.54644    0  138          -   33.54644      -     -    0s
     0     0   33.55089    0  136          -   33.55089      -     -    0s
     0     0   33.65878    0  135          -   33.65878      -     -    0s
     0     0   33.81744    0  134          -   33.81744      -     -    0s
     0     0   33.88760    0  146          -   33.88760      -     -    0s
     0     0   33.92444    0  109          -   33.92444      -     -    0s
     0     0   34.05059    0  136          -   34.05059      -     -    0s
     0     0   34.08823    0  144          -   34.08823      -     -    0s
     0     0   34.09471    0  151          -   34.09471      -     -    0s
     0     0   34.20677    0  107          -   34.20677      -     -    0s
     0     0   34.25129    0  141          -   34.25129      -     -    0s
     0     0   34.28155    0  149          -   34.28155      -     -    0s
     0     0   34.34556    0  143          -   34.34556      -     -    0s
     0     0   34.37279    0  145          -   34.37279      -     -    0s
     0     0   34.38366    0  149          -   34.38366      -     -    0s
     0     0   34.54139    0  144          -   34.54139      -     -    0s
     0     0   34.62844    0  121          -   34.62844      -     -    0s
     0     0   34.65942    0  126          -   34.65942      -     -    0s
     0     0   34.67824    0  164          -   34.67824      -     -    0s
     0     0   34.68414    0  129          -   34.68414      -     -    0s
     0     0   34.89903    0  154          -   34.89903      -     -    0s
     0     0   35.16525    0  117          -   35.16525      -     -    0s
     0     0   35.22832    0  156          -   35.22832      -     -    0s
     0     0   35.35273    0  156          -   35.35273      -     -    0s
     0     0   35.47155    0  151          -   35.47155      -     -    0s
     0     0   35.52194    0  161          -   35.52194      -     -    0s
     0     0   35.56922    0  164          -   35.56922      -     -    0s
     0     0   35.60210    0  165          -   35.60210      -     -    0s
     0     0   35.61242    0  160          -   35.61242      -     -    0s
     0     0   35.63995    0  159          -   35.63995      -     -    0s
     0     0   35.67371    0  159          -   35.67371      -     -    0s
     0     0   35.68359    0  162          -   35.68359      -     -    0s
     0     0   35.81726    0  154          -   35.81726      -     -    0s
     0     0   36.23685    0  171          -   36.23685      -     -    0s
     0     0   36.35812    0  153          -   36.35812      -     -    0s
     0     0   36.42958    0  138          -   36.42958      -     -    0s
     0     0   36.43402    0  146          -   36.43402      -     -    0s
     0     0   36.51491    0  157          -   36.51491      -     -    0s
     0     0   36.51894    0  158          -   36.51894      -     -    0s
     0     0   36.54523    0  175          -   36.54523      -     -    0s
     0     0   36.54523    0  171          -   36.54523      -     -    0s
     0     2   36.54523    0  168          -   36.54523      -     -    0s
H13289  8535                     341.0000000   68.00000  80.1%  12.1    4s
H13783  6959                     166.0000000   68.00000  59.0%  12.0    4s
 14445  7337 infeasible   81       166.00000   69.38140  58.2%  12.0    5s
*17024  4640              79     116.0000000   72.00000  37.9%  12.4    6s
 20699  5531  109.93858   60   40  116.00000   80.00000  31.0%  13.5   10s
 25628  2802 infeasible   98       116.00000   99.67652  14.1%  16.7   15s

Cutting planes:
  Gomory: 16
  Implied bound: 7
  MIR: 95
  StrongCG: 1
  Flow cover: 247
  Inf proof: 11
  Zero half: 5

Explored 28673 nodes (486967 simplex iterations) in 15.79 seconds
Thread count was 4 (of 4 available processors)

Solution count 3: 116 166 341 

Optimal solution found (tolerance 1.00e-04)
Best objective 1.160000000000e+02, best bound 1.160000000000e+02, gap 0.0000%
